problems/csplib-prob013/ProgressivePartyProblem-models/noch/O2/lingeling/model_3_1-Ian03-solution000001.eprime-solution
language ESSENCE' 1.0

letting aux1_Occurrence be
        [[true, true, true, true, true, false, true; int(1..7)], [true, true, true, true, true, false, true; int(1..7)],
         [true, true, true, true, true, false, true; int(1..7)], [true, true, true, true, true, false, true; int(1..7)],
         [true, true, true, true, true, false, true; int(1..7)],
         [true, true, true, true, true, false, true; int(1..7)]; int(1..6)]
letting hosts_ExplicitVarSizeWithMarker_Marker be 6
letting hosts_ExplicitVarSizeWithMarker_Values be [1, 2, 3, 4, 5, 7, 1; int(1..7)]
letting sched_ExplicitR9_Function1D be
        [[1, 2, 3, 4, 5, 1, 7; int(1..7)], [1, 2, 3, 4, 5, 2, 7; int(1..7)], [1, 2, 3, 4, 5, 3, 7; int(1..7)],
         [1, 2, 3, 4, 5, 4, 7; int(1..7)], [1, 2, 3, 4, 5, 5, 7; int(1..7)],
         [1, 2, 3, 4, 5, 7, 7; int(1..7)]; int(1..6)]
