problems/csplib-prob013/ProgressivePartyProblem-models/noch/O2/lingeling/model_3_1-Ian03-solution000001.solution
language Essence 1.3

letting hosts be {1, 2, 3, 4, 5, 7}
letting sched be
        {function(1 --> 1, 2 --> 2, 3 --> 3, 4 --> 4, 5 --> 5, 6 --> 1, 7 --> 7),
         function(1 --> 1, 2 --> 2, 3 --> 3, 4 --> 4, 5 --> 5, 6 --> 2, 7 --> 7),
         function(1 --> 1, 2 --> 2, 3 --> 3, 4 --> 4, 5 --> 5, 6 --> 3, 7 --> 7),
         function(1 --> 1, 2 --> 2, 3 --> 3, 4 --> 4, 5 --> 5, 6 --> 4, 7 --> 7),
         function(1 --> 1, 2 --> 2, 3 --> 3, 4 --> 4, 5 --> 5, 6 --> 5, 7 --> 7),
         function(1 --> 1, 2 --> 2, 3 --> 3, 4 --> 4, 5 --> 5, 6 --> 7, 7 --> 7)}
